Output/Exact/Random_030_02_3.lp.out
CPU Time for Parsing input: 0.003254s (0.003254s total since program start)
CPU Time for solving: 2.39732s (2.40057s total since program start)

Value of objective function: 39.00000000
